
<<< setup

Version identifier: 22.1.1.0 | 2022-11-27 | 9160aff4d
Tried aggregator 1 time.
LP Presolve eliminated 1418 rows and 1286 columns.
Reduced LP has 60 rows, 168 columns, and 312 nonzeros.
Presolve time = 0.00 sec. (2.94 ticks)

Iteration log . . .
Iteration:     1   Dual infeasibility =          1081.490890
Iteration:    62   Dual infeasibility =             0.000000
Iteration:    63   Dual objective     =          1754.496379
main returns 0

<<< main


<<< done

